%mem=550Mb
%NProcShared=1
#LC-wPBE/aug-cc-pVTZ SP POP=FULL IOP(6/81=3) IOP(3/107=0512000000,3/108=0512000000)

water dimer, printing kinetic energy of orbitals

0 1
O    -1.524855    -0.006319    -0.119794
H    -1.905803     0.040057     0.763276
H    -0.563607     0.002668     0.011166

