!this Gaussian input will print out orbital info for Molden to read.
%mem=300Mb
%NprocShared=1
#HF/6-31g** sp GFINPUT IOP(6/7=3)

koment

0 2
H

