%Mem=320Mb
%NprocShared=1
#B3LYP/6-31g* SP SCRF=(PCM,Solvent=Benzene) 

PCM solvatace, zakladni stav

0 1
O
H 1 r1
H 1 r1 2 a1

r1=1.0
a1=180.

