
$molecule
0 1
O    1.2209454916000000        1.1009983115999999       -5.4668213781999997
H    1.2098227510999999        1.9586117950999999       -5.0135938952999997
H    1.4626306595000000        1.3666656952000000       -6.3821352127999997
$end

$rem
JOBTYPE OPT
exchange pbe
correlation pbe
BASIS  6-31g*
max_scf_cycles    100
$end

