%mem=550Mb
%NProcShared=1
#HF/aug-cc-pVTZ Symmetry=None OPT IOP(6/81=3)

neutral neon

0 1
Ne   0.0 0.0  0.763276

